container_size = [52, 30, 18];
Box = B(1..7);
no_boxes = [24, 9, 23, 31, 20, 13, 10];
box_size =
[|       Length: Width: Height: 
 | B(1):      3,     3,      2
 | B(2):      7,     3,      2
 | B(3):      9,     2,      2
 | B(4):      4,     4,      2
 | B(5):     15,     3,      3
 | B(6):      5,     4,      2
 | B(7):      2,     2,      2
 |];
